100
300
30
0 0
87 37
55 67
35 96
11 30
82 51
0 88
57 62
49 66
40 63
97 52
52 17
0 18
12 91
63 35
4 17
90 22
12 38
63 52
60 61
74 9
34 60
21 97
49 23
86 26
66 81
8 11
21 63
4 46
71 7
32 25
0 0
60
40
50
70
40
40
60
30
30
70
40
60
30
50
40
60
40
50
70
40
40
60
30
30
70
40
60
30
50
40
